1 2 7 9 10 77 101 5 12 89 103 15 24 20 11 120 199 168 92 128 27 190 30 31 185 131 35 201 18 38 23 49 41 44 141 127 34 47 48 51 71 142 52 181 28 26 130 180 45 138 155 58 65 134 66 192 163 122 196 161 174 78 123 60 79 80 81 82 84 86 4 42 88 152 21 17 19 57 156 16 114 93 116 198 159 105 94 140 177 76 87 43 167 61 83 55 33 36 63 178 151 53 149 96 13 70 121 98 74 29 100 102 191 69 104 153 176 109 95 22 194 110 119 106 112 115 113 117 125 164 6 124 182 129 73 145 132 172 135 108 183 56 150 187 75 136 68 40 143 139 144 39 90 148 171 25 72 146 64 54 158 99 162 165 137 97 166 50 170 169 173 154 157 175 32 91 3 133 179 111 46 62 37 126 186 188 193 107 160 14 67 59 195 197 85 118 8 189 184 200 147
8225.0
